certificates/rado_a5_c276_N54.drat
-47 -54 0
d -41 -47 -54 0
-12 -54 0
d -12 -6 -54 0
-54 0
48 0
-12 0
6 0
18 0
-47 0
-42 0
-49 0
41 0
53 0
13 0
1 0
11 0
36 0
43 0
23 0
16 0
8 0
-5 0
-30 0
-52 0
-17 0
-7 0
-37 0
-29 0
-2 0
-24 0
-22 0
-25 0
-32 0
-34 0
-27 0
-19 0
-44 0
46 0
14 0
0
